NAME          ClpDefau
ROWS
 N  OBJROW
 L  R_172_0
 L  R_172_1
 L  R_172_2
 L  R_172_3
 L  R_172_4
 L  R_172_5
 L  R_172_6
 L  R_172_7
 L  R_172_8
 L  R_172_9
 L  R_172_10
 L  R_172_11
 L  R_172_12
 L  R_172_13
 L  R_172_14
 L  R_172_15
 L  R_172_16
 L  R_172_17
 L  R_172_18
 L  R_172_19
 L  R_172_20
 L  R_172_21
 L  R_172_22
 L  R_172_23
 L  R_172_24
 L  R_172_25
 L  R_172_26
 L  R_172_27
 L  R_172_28
 L  R_172_29
 L  R_172_30
 L  R_172_31
COLUMNS
    x_0       OBJROW     -8.           R_172_1   9.          
    x_0       R_172_3   8.             R_172_4   1.          
    x_0       R_172_6   6.             R_172_8   9.          
    x_0       R_172_9   3.             R_172_10  1.          
    x_0       R_172_11  3.             R_172_12  9.          
    x_0       R_172_13  9.             R_172_14  3.          
    x_0       R_172_16  7.             R_172_17  6.          
    x_0       R_172_18  6.             R_172_19  8.          
    x_0       R_172_20  7.             R_172_21  8.          
    x_0       R_172_22  4.             R_172_23  8.          
    x_0       R_172_24  6.             R_172_25  8.          
    x_0       R_172_27  10.            R_172_28  9.          
    x_0       R_172_29  8.             R_172_30  6.          
    x_1       OBJROW     -12.          R_172_2   8.          
    x_1       R_172_3   9.             R_172_4   9.          
    x_1       R_172_5   10.            R_172_6   4.          
    x_1       R_172_7   6.             R_172_9   2.          
    x_1       R_172_10  6.             R_172_11  4.          
    x_1       R_172_13  10.            R_172_14  5.          
    x_1       R_172_15  2.             R_172_16  3.          
    x_1       R_172_18  4.             R_172_20  1.          
    x_1       R_172_21  6.             R_172_22  1.          
    x_1       R_172_23  2.             R_172_24  1.          
    x_1       R_172_25  3.             R_172_27  3.          
    x_1       R_172_28  1.             R_172_29  1.          
    x_1       R_172_30  4.             R_172_31  1.          
    x_2       OBJROW     -11.          R_172_0   10.         
    x_2       R_172_1   2.             R_172_2   8.          
    x_2       R_172_3   8.             R_172_4   10.         
    x_2       R_172_5   5.             R_172_6   10.         
    x_2       R_172_7   8.             R_172_9   6.          
    x_2       R_172_11  3.             R_172_12  7.          
    x_2       R_172_13  6.             R_172_14  6.          
    x_2       R_172_15  10.            R_172_17  9.          
    x_2       R_172_19  5.             R_172_20  3.          
    x_2       R_172_21  8.             R_172_22  9.          
    x_2       R_172_24  1.             R_172_26  8.          
    x_2       R_172_27  2.             R_172_28  10.         
    x_2       R_172_29  10.            R_172_30  5.          
    x_2       R_172_31  5.          
    x_3       OBJROW     -47.          R_172_0   1.          
    x_3       R_172_1   7.             R_172_2   2.          
    x_3       R_172_3   2.             R_172_4   2.          
    x_3       R_172_5   4.             R_172_6   1.          
    x_3       R_172_7   8.             R_172_8   9.          
    x_3       R_172_9   4.             R_172_10  4.          
    x_3       R_172_11  7.             R_172_12  1.          
    x_3       R_172_13  1.             R_172_16  2.          
    x_3       R_172_17  8.             R_172_18  9.          
    x_3       R_172_20  6.             R_172_21  6.          
    x_3       R_172_22  7.             R_172_23  5.          
    x_3       R_172_24  1.             R_172_26  8.          
    x_3       R_172_27  10.            R_172_28  1.          
    x_3       R_172_29  6.             R_172_30  2.          
    x_3       R_172_31  8.          
    x_4       OBJROW     -22.          R_172_0   10.         
    x_4       R_172_1   8.             R_172_2   6.          
    x_4       R_172_3   2.             R_172_4   2.          
    x_4       R_172_5   6.             R_172_6   4.          
    x_4       R_172_7   1.             R_172_8   8.          
    x_4       R_172_9   8.             R_172_10  8.          
    x_4       R_172_11  6.             R_172_12  9.          
    x_4       R_172_14  7.             R_172_17  4.          
    x_4       R_172_18  10.            R_172_19  7.          
    x_4       R_172_20  2.             R_172_21  10.         
    x_4       R_172_22  6.             R_172_23  9.          
    x_4       R_172_24  7.             R_172_26  1.          
    x_4       R_172_27  5.             R_172_28  6.          
    x_4       R_172_29  9.             R_172_30  3.          
    x_4       R_172_31  7.          
    x_5       OBJROW     -95.          R_172_0   9.          
    x_5       R_172_1   9.             R_172_2   3.          
    x_5       R_172_3   4.             R_172_4   6.          
    x_5       R_172_5   10.            R_172_6   8.          
    x_5       R_172_7   1.             R_172_9   3.          
    x_5       R_172_10  1.             R_172_11  7.          
    x_5       R_172_12  7.             R_172_13  8.          
    x_5       R_172_14  9.             R_172_15  2.          
    x_5       R_172_16  4.             R_172_17  4.          
    x_5       R_172_18  7.             R_172_20  1.          
    x_5       R_172_21  9.             R_172_22  8.          
    x_5       R_172_23  2.             R_172_24  4.          
    x_5       R_172_25  10.            R_172_26  4.          
    x_5       R_172_28  9.             R_172_29  4.          
    x_5       R_172_30  10.            R_172_31  8.          
    x_6       OBJROW     -86.          R_172_1   10.         
    x_6       R_172_2   8.             R_172_3   10.         
    x_6       R_172_4   4.             R_172_6   6.          
    x_6       R_172_7   8.             R_172_8   2.          
    x_6       R_172_9   8.             R_172_12  9.          
    x_6       R_172_13  2.             R_172_14  6.          
    x_6       R_172_15  7.             R_172_16  3.          
    x_6       R_172_17  8.             R_172_18  8.          
    x_6       R_172_19  3.             R_172_20  9.          
    x_6       R_172_21  1.             R_172_22  9.          
    x_6       R_172_24  4.             R_172_26  3.          
    x_6       R_172_27  9.             R_172_28  5.          
    x_6       R_172_29  6.             R_172_30  5.          
    x_6       R_172_31  7.          
    x_7       OBJROW     -40.          R_172_0   2.          
    x_7       R_172_1   4.             R_172_2   9.          
    x_7       R_172_4   9.             R_172_5   5.          
    x_7       R_172_6   8.             R_172_7   9.          
    x_7       R_172_8   2.             R_172_9   7.          
    x_7       R_172_11  6.             R_172_12  8.          
    x_7       R_172_13  8.             R_172_14  5.          
    x_7       R_172_15  3.             R_172_17  4.          
    x_7       R_172_19  2.             R_172_21  6.          
    x_7       R_172_22  3.             R_172_23  4.          
    x_7       R_172_24  9.             R_172_25  7.          
    x_7       R_172_27  5.             R_172_30  6.          
    x_7       R_172_31  5.          
    x_8       OBJROW     -33.          R_172_0   2.          
    x_8       R_172_1   7.             R_172_2   5.          
    x_8       R_172_4   8.             R_172_5   3.          
    x_8       R_172_6   7.             R_172_7   1.          
    x_8       R_172_8   3.             R_172_9   7.          
    x_8       R_172_10  6.             R_172_11  10.         
    x_8       R_172_12  5.             R_172_13  3.          
    x_8       R_172_14  4.             R_172_16  3.          
    x_8       R_172_17  6.             R_172_18  7.          
    x_8       R_172_19  2.             R_172_20  4.          
    x_8       R_172_21  10.            R_172_22  6.          
    x_8       R_172_23  10.            R_172_24  3.          
    x_8       R_172_25  2.             R_172_26  5.          
    x_8       R_172_27  9.             R_172_28  2.          
    x_8       R_172_29  10.            R_172_31  1.          
    x_9       OBJROW     -78.          R_172_0   8.          
    x_9       R_172_1   6.             R_172_2   10.         
    x_9       R_172_3   10.            R_172_4   8.          
    x_9       R_172_7   7.             R_172_8   8.          
    x_9       R_172_9   2.             R_172_10  10.         
    x_9       R_172_11  9.             R_172_13  5.          
    x_9       R_172_14  1.             R_172_15  6.          
    x_9       R_172_16  1.             R_172_17  2.          
    x_9       R_172_18  8.             R_172_19  8.          
    x_9       R_172_20  8.             R_172_21  1.          
    x_9       R_172_22  9.             R_172_23  1.          
    x_9       R_172_24  1.             R_172_26  9.          
    x_9       R_172_28  8.             R_172_29  9.          
    x_9       R_172_30  2.             R_172_31  1.          
    x_10      OBJROW     -28.          R_172_0   7.          
    x_10      R_172_1   7.             R_172_3   9.          
    x_10      R_172_4   3.             R_172_5   3.          
    x_10      R_172_6   4.             R_172_7   4.          
    x_10      R_172_8   7.             R_172_9   3.          
    x_10      R_172_10  5.             R_172_12  8.          
    x_10      R_172_13  9.             R_172_14  5.          
    x_10      R_172_15  3.             R_172_16  2.          
    x_10      R_172_17  9.             R_172_18  4.          
    x_10      R_172_19  10.            R_172_20  3.          
    x_10      R_172_21  5.             R_172_22  8.          
    x_10      R_172_23  4.             R_172_25  1.          
    x_10      R_172_26  2.             R_172_27  9.          
    x_10      R_172_29  2.          
    x_11      OBJROW     -78.          R_172_0   5.          
    x_11      R_172_2   6.             R_172_3   5.          
    x_11      R_172_5   2.             R_172_6   7.          
    x_11      R_172_7   1.             R_172_8   2.          
    x_11      R_172_9   5.             R_172_11  7.          
    x_11      R_172_12  9.             R_172_13  10.         
    x_11      R_172_14  4.             R_172_15  3.          
    x_11      R_172_16  8.             R_172_19  10.         
    x_11      R_172_20  4.             R_172_21  8.          
    x_11      R_172_22  8.             R_172_24  2.          
    x_11      R_172_25  10.            R_172_26  8.          
    x_11      R_172_27  10.            R_172_28  10.         
    x_11      R_172_30  5.          
    x_12      OBJROW     -5.           R_172_0   5.          
    x_12      R_172_1   1.             R_172_2   6.          
    x_12      R_172_3   9.             R_172_4   6.          
    x_12      R_172_6   8.             R_172_8   10.         
    x_12      R_172_9   4.             R_172_10  10.         
    x_12      R_172_11  2.             R_172_12  8.          
    x_12      R_172_14  8.             R_172_15  4.          
    x_12      R_172_16  5.             R_172_19  10.         
    x_12      R_172_20  6.             R_172_21  7.          
    x_12      R_172_22  4.             R_172_23  9.          
    x_12      R_172_24  4.             R_172_25  10.         
    x_12      R_172_26  7.             R_172_27  8.          
    x_12      R_172_28  8.             R_172_30  4.          
    x_12      R_172_31  9.          
    x_13      OBJROW     -75.          R_172_0   2.          
    x_13      R_172_1   9.             R_172_2   1.          
    x_13      R_172_3   7.             R_172_4   9.          
    x_13      R_172_5   6.             R_172_6   9.          
    x_13      R_172_8   2.             R_172_9   4.          
    x_13      R_172_10  1.             R_172_11  3.          
    x_13      R_172_12  4.             R_172_13  9.          
    x_13      R_172_14  3.             R_172_15  2.          
    x_13      R_172_16  9.             R_172_17  3.          
    x_13      R_172_18  3.             R_172_19  9.          
    x_13      R_172_20  8.             R_172_21  9.          
    x_13      R_172_22  6.             R_172_23  2.          
    x_13      R_172_24  2.             R_172_25  6.          
    x_13      R_172_26  5.             R_172_29  3.          
    x_13      R_172_30  6.             R_172_31  1.          
    x_14      OBJROW     -88.          R_172_0   9.          
    x_14      R_172_1   2.             R_172_2   9.          
    x_14      R_172_3   7.             R_172_4   4.          
    x_14      R_172_5   3.             R_172_6   1.          
    x_14      R_172_7   6.             R_172_8   5.          
    x_14      R_172_9   1.             R_172_11  4.          
    x_14      R_172_12  6.             R_172_13  10.         
    x_14      R_172_15  9.             R_172_16  1.          
    x_14      R_172_17  2.             R_172_18  5.          
    x_14      R_172_19  4.             R_172_20  9.          
    x_14      R_172_23  3.             R_172_24  3.          
    x_14      R_172_25  6.             R_172_26  10.         
    x_14      R_172_27  8.             R_172_29  8.          
    x_14      R_172_30  10.         
    x_15      OBJROW     -21.          R_172_1   5.          
    x_15      R_172_2   3.             R_172_3   10.         
    x_15      R_172_4   8.             R_172_5   4.          
    x_15      R_172_6   5.             R_172_7   6.          
    x_15      R_172_8   1.             R_172_10  1.          
    x_15      R_172_11  1.             R_172_13  10.         
    x_15      R_172_14  5.             R_172_15  8.          
    x_15      R_172_16  10.            R_172_17  4.          
    x_15      R_172_18  9.             R_172_19  5.          
    x_15      R_172_21  7.             R_172_22  4.          
    x_15      R_172_23  7.             R_172_24  10.         
    x_15      R_172_25  9.             R_172_26  7.          
    x_15      R_172_27  6.             R_172_29  3.          
    x_15      R_172_30  3.             R_172_31  8.          
RHS
    RHS       R_172_0   69.            R_172_1   77.         
    RHS       R_172_2   72.            R_172_3   74.         
    RHS       R_172_4   82.            R_172_5   76.         
    RHS       R_172_6   73.            R_172_7   84.         
    RHS       R_172_8   72.            R_172_9   85.         
    RHS       R_172_10  74.            R_172_11  85.         
    RHS       R_172_12  64.            R_172_13  76.         
    RHS       R_172_14  82.            R_172_15  65.         
    RHS       R_172_16  70.            R_172_17  78.         
    RHS       R_172_18  67.            R_172_19  67.         
    RHS       R_172_20  64.            R_172_21  75.         
    RHS       R_172_22  74.            R_172_23  83.         
    RHS       R_172_24  74.            R_172_25  76.         
    RHS       R_172_26  69.            R_172_27  74.         
    RHS       R_172_28  66.            R_172_29  80.         
    RHS       R_172_30  83.            R_172_31  79.         
BOUNDS
 UI BOUND     x_0       100.        
 UI BOUND     x_1       100.        
 UI BOUND     x_2       100.        
 UI BOUND     x_3       100.        
 UI BOUND     x_4       100.        
 UI BOUND     x_5       100.        
 UI BOUND     x_6       100.        
 UI BOUND     x_7       100.        
 UI BOUND     x_8       100.        
 UI BOUND     x_9       100.        
 UI BOUND     x_10      100.        
 UI BOUND     x_11      100.        
 UI BOUND     x_12      100.        
 UI BOUND     x_13      100.        
 UI BOUND     x_14      100.        
 UI BOUND     x_15      100.        
ENDATA
